70
100
80	6
79	5
78	5
77	6
76	2
75	1
74	3
73	7
72	5
71	6
70	3
69	3
68	5
67	4
65	10
64	4
63	3
62	1
61	2
60	2
59	5
58	6
57	2
56	4
55	2
54	3
53	4
52	3
51	5
50	3
49	11
48	6
47	5
46	6
45	9
44	3
43	6
42	5
41	2
40	5
39	3
38	4
37	6
36	5
35	6
34	4
33	4
32	1
31	4
30	4
29	3
28	4
27	4
26	3
25	3
24	4
23	3
22	4
21	5
20	4
19	2
18	6
17	2
16	6
15	6
14	6
13	4
12	6
11	4
10	2
